\ This file has been generated by DOcplex
\ ENCODING=ISO-8859-1
\Problem name: Orandom442_6.lp

Minimize
 obj: - 32.000000670095 x0 - 16.000000335047 x1 - 8.000000167524 x2
      - 16.000000670095 x3 - 8.000000335047 x4 - 4.000000167524 x5 + [
      16.000000382911 x0^2 + 16.000000382911 x0*x1 + 8.000000191456 x0*x2
      + 32.000000765823 x0*x3 + 16.000000382911 x0*x4 + 8.000000191456 x0*x5
      + 4.000000095728 x1^2 + 4.000000095728 x1*x2 + 16.000000382911 x1*x3
      + 8.000000191456 x1*x4 + 4.000000095728 x1*x5 + 1.000000023932 x2^2
      + 8.000000191456 x2*x3 + 4.000000095728 x2*x4 + 2.000000047864 x2*x5
      + 48.000000382911 x3^2 + 48.000000382911 x3*x4 + 24.000000191456 x3*x5
      + 12.000000095728 x4^2 + 12.000000095728 x4*x5 + 3.000000023932 x5^2 ]/2 +
      24.500000586333
Subject To

Bounds
 0 <= x0 <= 1
 0 <= x1 <= 1
 0 <= x2 <= 1
 0 <= x3 <= 1
 0 <= x4 <= 1
 0 <= x5 <= 1

Binaries
 x0 x1 x2 x3 x4 x5
End
